50, 2476727
100081, 845
100045, 758
100008, 421
100032, 259
100051, 512
100094, 405
100011, 784
100055, 304
100071, 477
100055, 584
100082, 909
100054, 505
100097, 282
100060, 756
100059, 619
100044, 251
100060, 910
100038, 983
100058, 811
100029, 903
100019, 311
100018, 730
100061, 899
100066, 684
100048, 473
100009, 101
100076, 435
100088, 611
100093, 914
100085, 967
100090, 478
100093, 866
100054, 261
100039, 806
100071, 549
100027, 15
100081, 720
100085, 399
100090, 825
100059, 669
100095, 2
100058, 494
100045, 868
100066, 244
100100, 326
100092, 871
100080, 192
100008, 568
100061, 239
100049, 968
